NAME: tsp25_1
COMMENT: 25-tsp problem (Padberg/Rinaldi)
TYPE: TSP
DIMENSION: 25
EDGE_WEIGHT_TYPE : EUC_2D
NODE_COORD_SECTION
1 27 11
2 36 32
3 1 11
4 21 8
5 22 15
6 4 4
7 7 12
8 4 37
9 9 25
10 28 5
11 18 20
12 29 3
13 15 2
14 23 2
15 15 38
16 11 16
17 32 4
18 20 25
19 27 39
20 7 16
21 28 29
22 29 28
23 5 31
24 36 16
25 31 35
